% From JaCoP's nonogramRepository/data041.nin
 rows = 20;
 row_rule_len = 8;
 row_rules = array2d(1..rows, 1..row_rule_len, 
[
 0,0,0,0,0,0,0,5,
 0,0,0,0,0,3,2,4,
 0,0,0,0,3,1,3,2,
 0,0,0,3,1,1,1,2,
 0,0,3,1,1,1,1,1,
 0,0,0,2,2,1,2,2,
 0,0,0,2,1,2,3,2,
 0,0,0,2,2,2,2,2,
 0,2,1,1,1,1,1,1,
 0,2,2,1,1,1,1,4,
 2,2,1,1,2,1,1,3,
 0,3,2,2,1,1,1,3,
 0,7,2,2,1,1,1,4,
 0,4,1,2,2,1,1,5,
 6,1,1,4,1,2,1,8,
 0,0,0,0,23,1,1,9,
 0,0,0,0,6,2,2,14,
 0,0,4,2,1,1,1,3,
 0,0,2,2,2,2,2,4,
 0,0,0,6,2,3,1,3
]);

 cols = 40;
 col_rule_len = 4;
 col_rules = array2d(1..cols, 1..col_rule_len, 
[
 0,0,0,4,
 0,0,0,4,
 0,0,0,3,
 0,0,0,3,
 0,0,0,3,
 0,0,1,3,
 0,0,2,2,
 0,0,0,10,
 0,0,0,16,
 0,0,3,8,
 3,3,1,1,
 3,4,2,1,
 0,3,3,5,
 0,2,2,2,
 0,0,1,2,
 0,1,1,1,
 0,2,3,5,
 2,2,6,2,
 0,0,1,2,
 0,0,0,2,
 0,0,6,2,
 1,2,2,2,
 0,2,2,4,
 0,2,1,1,
 2,1,2,2,
 0,1,4,3,
 2,2,2,1,
 0,2,3,1,
 0,4,1,1,
 0,3,2,2,
 0,0,0,13,
 0,0,0,2,
 0,0,2,3,
 0,0,0,7,
 0,5,2,3,
 3,2,3,2,
 3,2,4,1,
 0,2,4,2,
 0,0,3,1,
 0,0,3,1
]);

